c nIsolatedPIs 0
c maxPI 20
p cnf 631 1834
c gate 21 6 13 0
6 -21 0
13 -21 0
-6 -13 21 0
c gate 22 8 11 0
8 -22 0
11 -22 0
-8 -11 22 0
c gate 23 7 12 0
7 -23 0
12 -23 0
-7 -12 23 0
c gate 24 22 23 0
22 -24 0
23 -24 0
-22 -23 24 0
c gate 25 -22 -23 0
-22 -25 0
-23 -25 0
22 23 25 0
c gate 26 -24 -25 0
-24 -26 0
-25 -26 0
24 25 26 0
c gate 27 21 26 0
21 -27 0
26 -27 0
-21 -26 27 0
c gate 28 -21 -26 0
-21 -28 0
-26 -28 0
21 26 28 0
c gate 29 -27 -28 0
-27 -29 0
-28 -29 0
27 28 29 0
c gate 30 7 11 0
7 -30 0
11 -30 0
-7 -11 30 0
c gate 31 6 12 0
6 -31 0
12 -31 0
-6 -12 31 0
c gate 32 -30 -31 0
-30 -32 0
-31 -32 0
30 31 32 0
c gate 33 30 31 0
30 -33 0
31 -33 0
-30 -31 33 0
c gate 34 -32 -33 0
-32 -34 0
-33 -34 0
32 33 34 0
c gate 35 5 13 0
5 -35 0
13 -35 0
-5 -13 35 0
c gate 36 34 -35 0
34 -36 0
-35 -36 0
-34 35 36 0
c gate 37 -32 -36 0
-32 -37 0
-36 -37 0
32 36 37 0
c gate 38 29 37 0
29 -38 0
37 -38 0
-29 -37 38 0
c gate 39 3 16 0
3 -39 0
16 -39 0
-3 -16 39 0
c gate 40 5 14 0
5 -40 0
14 -40 0
-5 -14 40 0
c gate 41 4 15 0
4 -41 0
15 -41 0
-4 -15 41 0
c gate 42 -40 -41 0
-40 -42 0
-41 -42 0
40 41 42 0
c gate 43 40 41 0
40 -43 0
41 -43 0
-40 -41 43 0
c gate 44 -42 -43 0
-42 -44 0
-43 -44 0
42 43 44 0
c gate 45 -39 -44 0
-39 -45 0
-44 -45 0
39 44 45 0
c gate 46 39 44 0
39 -46 0
44 -46 0
-39 -44 46 0
c gate 47 -45 -46 0
-45 -47 0
-46 -47 0
45 46 47 0
c gate 48 -29 -37 0
-29 -48 0
-37 -48 0
29 37 48 0
c gate 49 -38 -48 0
-38 -49 0
-48 -49 0
38 48 49 0
c gate 50 47 49 0
47 -50 0
49 -50 0
-47 -49 50 0
c gate 51 -38 -50 0
-38 -51 0
-50 -51 0
38 50 51 0
c gate 52 4 16 0
4 -52 0
16 -52 0
-4 -16 52 0
c gate 53 6 14 0
6 -53 0
14 -53 0
-6 -14 53 0
c gate 54 5 15 0
5 -54 0
15 -54 0
-5 -15 54 0
c gate 55 -53 -54 0
-53 -55 0
-54 -55 0
53 54 55 0
c gate 56 53 54 0
53 -56 0
54 -56 0
-53 -54 56 0
c gate 57 -55 -56 0
-55 -57 0
-56 -57 0
55 56 57 0
c gate 58 52 57 0
52 -58 0
57 -58 0
-52 -57 58 0
c gate 59 -52 -57 0
-52 -59 0
-57 -59 0
52 57 59 0
c gate 60 -58 -59 0
-58 -60 0
-59 -60 0
58 59 60 0
c gate 61 -24 -27 0
-24 -61 0
-27 -61 0
24 27 61 0
c gate 62 7 13 0
7 -62 0
13 -62 0
-7 -13 62 0
c gate 63 9 11 0
9 -63 0
11 -63 0
-9 -11 63 0
c gate 64 8 12 0
8 -64 0
12 -64 0
-8 -12 64 0
c gate 65 63 64 0
63 -65 0
64 -65 0
-63 -64 65 0
c gate 66 -63 -64 0
-63 -66 0
-64 -66 0
63 64 66 0
c gate 67 -65 -66 0
-65 -67 0
-66 -67 0
65 66 67 0
c gate 68 62 67 0
62 -68 0
67 -68 0
-62 -67 68 0
c gate 69 -62 -67 0
-62 -69 0
-67 -69 0
62 67 69 0
c gate 70 -68 -69 0
-68 -70 0
-69 -70 0
68 69 70 0
c gate 71 -61 70 0
-61 -71 0
70 -71 0
61 -70 71 0
c gate 72 61 -70 0
61 -72 0
-70 -72 0
-61 70 72 0
c gate 73 -71 -72 0
-71 -73 0
-72 -73 0
71 72 73 0
c gate 74 60 73 0
60 -74 0
73 -74 0
-60 -73 74 0
c gate 75 -60 -73 0
-60 -75 0
-73 -75 0
60 73 75 0
c gate 76 -74 -75 0
-74 -76 0
-75 -76 0
74 75 76 0
c gate 77 -51 76 0
-51 -77 0
76 -77 0
51 -76 77 0
c gate 78 1 19 0
1 -78 0
19 -78 0
-1 -19 78 0
c gate 79 3 17 0
3 -79 0
17 -79 0
-3 -17 79 0
c gate 80 2 18 0
2 -80 0
18 -80 0
-2 -18 80 0
c gate 81 79 80 0
79 -81 0
80 -81 0
-79 -80 81 0
c gate 82 -79 -80 0
-79 -82 0
-80 -82 0
79 80 82 0
c gate 83 -81 -82 0
-81 -83 0
-82 -83 0
81 82 83 0
c gate 84 78 83 0
78 -84 0
83 -84 0
-78 -83 84 0
c gate 85 -78 -83 0
-78 -85 0
-83 -85 0
78 83 85 0
c gate 86 -84 -85 0
-84 -86 0
-85 -86 0
84 85 86 0
c gate 87 -43 -46 0
-43 -87 0
-46 -87 0
43 46 87 0
c gate 88 86 -87 0
86 -88 0
-87 -88 0
-86 87 88 0
c gate 89 -86 87 0
-86 -89 0
87 -89 0
86 -87 89 0
c gate 90 -88 -89 0
-88 -90 0
-89 -90 0
88 89 90 0
c gate 91 2 17 0
2 -91 0
17 -91 0
-2 -17 91 0
c gate 92 1 18 0
1 -92 0
18 -92 0
-1 -18 92 0
c gate 93 91 92 0
91 -93 0
92 -93 0
-91 -92 93 0
c gate 94 -90 -93 0
-90 -94 0
-93 -94 0
90 93 94 0
c gate 95 90 93 0
90 -95 0
93 -95 0
-90 -93 95 0
c gate 96 -94 -95 0
-94 -96 0
-95 -96 0
94 95 96 0
c gate 97 51 -76 0
51 -97 0
-76 -97 0
-51 76 97 0
c gate 98 -77 -97 0
-77 -98 0
-97 -98 0
77 97 98 0
c gate 99 96 98 0
96 -99 0
98 -99 0
-96 -98 99 0
c gate 100 -77 -99 0
-77 -100 0
-99 -100 0
77 99 100 0
c gate 101 -81 -84 0
-81 -101 0
-84 -101 0
81 84 101 0
c gate 102 2 19 0
2 -102 0
19 -102 0
-2 -19 102 0
c gate 103 4 17 0
4 -103 0
17 -103 0
-4 -17 103 0
c gate 104 3 18 0
3 -104 0
18 -104 0
-3 -18 104 0
c gate 105 103 104 0
103 -105 0
104 -105 0
-103 -104 105 0
c gate 106 -103 -104 0
-103 -106 0
-104 -106 0
103 104 106 0
c gate 107 -105 -106 0
-105 -107 0
-106 -107 0
105 106 107 0
c gate 108 102 107 0
102 -108 0
107 -108 0
-102 -107 108 0
c gate 109 -102 -107 0
-102 -109 0
-107 -109 0
102 107 109 0
c gate 110 -108 -109 0
-108 -110 0
-109 -110 0
108 109 110 0
c gate 111 -56 -58 0
-56 -111 0
-58 -111 0
56 58 111 0
c gate 112 110 -111 0
110 -112 0
-111 -112 0
-110 111 112 0
c gate 113 -110 111 0
-110 -113 0
111 -113 0
110 -111 113 0
c gate 114 -112 -113 0
-112 -114 0
-113 -114 0
112 113 114 0
c gate 115 -101 114 0
-101 -115 0
114 -115 0
101 -114 115 0
c gate 116 101 -114 0
101 -116 0
-114 -116 0
-101 114 116 0
c gate 117 -115 -116 0
-115 -117 0
-116 -117 0
115 116 117 0
c gate 118 -71 -74 0
-71 -118 0
-74 -118 0
71 74 118 0
c gate 119 5 16 0
5 -119 0
16 -119 0
-5 -16 119 0
c gate 120 7 14 0
7 -120 0
14 -120 0
-7 -14 120 0
c gate 121 6 15 0
6 -121 0
15 -121 0
-6 -15 121 0
c gate 122 -120 -121 0
-120 -122 0
-121 -122 0
120 121 122 0
c gate 123 120 121 0
120 -123 0
121 -123 0
-120 -121 123 0
c gate 124 -122 -123 0
-122 -124 0
-123 -124 0
122 123 124 0
c gate 125 119 124 0
119 -125 0
124 -125 0
-119 -124 125 0
c gate 126 -119 -124 0
-119 -126 0
-124 -126 0
119 124 126 0
c gate 127 -125 -126 0
-125 -127 0
-126 -127 0
125 126 127 0
c gate 128 -65 -68 0
-65 -128 0
-68 -128 0
65 68 128 0
c gate 129 8 13 0
8 -129 0
13 -129 0
-8 -13 129 0
c gate 130 9 12 0
9 -130 0
12 -130 0
-9 -12 130 0
c gate 131 10 11 0
10 -131 0
11 -131 0
-10 -11 131 0
c gate 132 130 131 0
130 -132 0
131 -132 0
-130 -131 132 0
c gate 133 -130 -131 0
-130 -133 0
-131 -133 0
130 131 133 0
c gate 134 -132 -133 0
-132 -134 0
-133 -134 0
132 133 134 0
c gate 135 129 134 0
129 -135 0
134 -135 0
-129 -134 135 0
c gate 136 -129 -134 0
-129 -136 0
-134 -136 0
129 134 136 0
c gate 137 -135 -136 0
-135 -137 0
-136 -137 0
135 136 137 0
c gate 138 -128 137 0
-128 -138 0
137 -138 0
128 -137 138 0
c gate 139 128 -137 0
128 -139 0
-137 -139 0
-128 137 139 0
c gate 140 -138 -139 0
-138 -140 0
-139 -140 0
138 139 140 0
c gate 141 127 140 0
127 -141 0
140 -141 0
-127 -140 141 0
c gate 142 -127 -140 0
-127 -142 0
-140 -142 0
127 140 142 0
c gate 143 -141 -142 0
-141 -143 0
-142 -143 0
141 142 143 0
c gate 144 -118 143 0
-118 -144 0
143 -144 0
118 -143 144 0
c gate 145 118 -143 0
118 -145 0
-143 -145 0
-118 143 145 0
c gate 146 -144 -145 0
-144 -146 0
-145 -146 0
144 145 146 0
c gate 147 117 146 0
117 -147 0
146 -147 0
-117 -146 147 0
c gate 148 -117 -146 0
-117 -148 0
-146 -148 0
117 146 148 0
c gate 149 -147 -148 0
-147 -149 0
-148 -149 0
147 148 149 0
c gate 150 -100 149 0
-100 -150 0
149 -150 0
100 -149 150 0
c gate 151 -88 -95 0
-88 -151 0
-95 -151 0
88 95 151 0
c gate 152 100 -149 0
100 -152 0
-149 -152 0
-100 149 152 0
c gate 153 -150 -152 0
-150 -153 0
-152 -153 0
150 152 153 0
c gate 154 -151 153 0
-151 -154 0
153 -154 0
151 -153 154 0
c gate 155 -150 -154 0
-150 -155 0
-154 -155 0
150 154 155 0
c gate 156 -112 -115 0
-112 -156 0
-115 -156 0
112 115 156 0
c gate 157 -144 -147 0
-144 -157 0
-147 -157 0
144 147 157 0
c gate 158 -105 -108 0
-105 -158 0
-108 -158 0
105 108 158 0
c gate 159 3 19 0
3 -159 0
19 -159 0
-3 -19 159 0
c gate 160 5 17 0
5 -160 0
17 -160 0
-5 -17 160 0
c gate 161 4 18 0
4 -161 0
18 -161 0
-4 -18 161 0
c gate 162 160 161 0
160 -162 0
161 -162 0
-160 -161 162 0
c gate 163 -160 -161 0
-160 -163 0
-161 -163 0
160 161 163 0
c gate 164 -162 -163 0
-162 -164 0
-163 -164 0
162 163 164 0
c gate 165 159 164 0
159 -165 0
164 -165 0
-159 -164 165 0
c gate 166 -159 -164 0
-159 -166 0
-164 -166 0
159 164 166 0
c gate 167 -165 -166 0
-165 -167 0
-166 -167 0
165 166 167 0
c gate 168 -123 -125 0
-123 -168 0
-125 -168 0
123 125 168 0
c gate 169 167 -168 0
167 -169 0
-168 -169 0
-167 168 169 0
c gate 170 -167 168 0
-167 -170 0
168 -170 0
167 -168 170 0
c gate 171 -169 -170 0
-169 -171 0
-170 -171 0
169 170 171 0
c gate 172 -158 171 0
-158 -172 0
171 -172 0
158 -171 172 0
c gate 173 158 -171 0
158 -173 0
-171 -173 0
-158 171 173 0
c gate 174 -172 -173 0
-172 -174 0
-173 -174 0
172 173 174 0
c gate 175 -138 -141 0
-138 -175 0
-141 -175 0
138 141 175 0
c gate 176 6 16 0
6 -176 0
16 -176 0
-6 -16 176 0
c gate 177 8 14 0
8 -177 0
14 -177 0
-8 -14 177 0
c gate 178 7 15 0
7 -178 0
15 -178 0
-7 -15 178 0
c gate 179 -177 -178 0
-177 -179 0
-178 -179 0
177 178 179 0
c gate 180 177 178 0
177 -180 0
178 -180 0
-177 -178 180 0
c gate 181 -179 -180 0
-179 -181 0
-180 -181 0
179 180 181 0
c gate 182 176 181 0
176 -182 0
181 -182 0
-176 -181 182 0
c gate 183 -176 -181 0
-176 -183 0
-181 -183 0
176 181 183 0
c gate 184 -182 -183 0
-182 -184 0
-183 -184 0
182 183 184 0
c gate 185 -132 -135 0
-132 -185 0
-135 -185 0
132 135 185 0
c gate 186 10 12 0
10 -186 0
12 -186 0
-10 -12 186 0
c gate 187 9 13 0
9 -187 0
13 -187 0
-9 -13 187 0
c gate 188 186 187 0
186 -188 0
187 -188 0
-186 -187 188 0
c gate 189 -186 -187 0
-186 -189 0
-187 -189 0
186 187 189 0
c gate 190 -188 -189 0
-188 -190 0
-189 -190 0
188 189 190 0
c gate 191 -185 190 0
-185 -191 0
190 -191 0
185 -190 191 0
c gate 192 185 -190 0
185 -192 0
-190 -192 0
-185 190 192 0
c gate 193 -191 -192 0
-191 -193 0
-192 -193 0
191 192 193 0
c gate 194 184 193 0
184 -194 0
193 -194 0
-184 -193 194 0
c gate 195 -184 -193 0
-184 -195 0
-193 -195 0
184 193 195 0
c gate 196 -194 -195 0
-194 -196 0
-195 -196 0
194 195 196 0
c gate 197 -175 196 0
-175 -197 0
196 -197 0
175 -196 197 0
c gate 198 175 -196 0
175 -198 0
-196 -198 0
-175 196 198 0
c gate 199 -197 -198 0
-197 -199 0
-198 -199 0
197 198 199 0
c gate 200 174 199 0
174 -200 0
199 -200 0
-174 -199 200 0
c gate 201 -174 -199 0
-174 -201 0
-199 -201 0
174 199 201 0
c gate 202 -200 -201 0
-200 -202 0
-201 -202 0
200 201 202 0
c gate 203 -157 202 0
-157 -203 0
202 -203 0
157 -202 203 0
c gate 204 157 -202 0
157 -204 0
-202 -204 0
-157 202 204 0
c gate 205 -203 -204 0
-203 -205 0
-204 -205 0
203 204 205 0
c gate 206 -156 205 0
-156 -206 0
205 -206 0
156 -205 206 0
c gate 207 156 -205 0
156 -207 0
-205 -207 0
-156 205 207 0
c gate 208 -206 -207 0
-206 -208 0
-207 -208 0
206 207 208 0
c gate 209 -155 208 0
-155 -209 0
208 -209 0
155 -208 209 0
c gate 210 2 20 0
2 -210 0
20 -210 0
-2 -20 210 0
c gate 211 155 -208 0
155 -211 0
-208 -211 0
-155 208 211 0
c gate 212 -209 -211 0
-209 -212 0
-211 -212 0
209 211 212 0
c gate 213 210 212 0
210 -213 0
212 -213 0
-210 -212 213 0
c gate 214 -209 -213 0
-209 -214 0
-213 -214 0
209 213 214 0
c gate 215 3 20 0
3 -215 0
20 -215 0
-3 -20 215 0
c gate 216 -203 -206 0
-203 -216 0
-206 -216 0
203 206 216 0
c gate 217 -169 -172 0
-169 -217 0
-172 -217 0
169 172 217 0
c gate 218 -197 -200 0
-197 -218 0
-200 -218 0
197 200 218 0
c gate 219 -162 -165 0
-162 -219 0
-165 -219 0
162 165 219 0
c gate 220 4 19 0
4 -220 0
19 -220 0
-4 -19 220 0
c gate 221 6 17 0
6 -221 0
17 -221 0
-6 -17 221 0
c gate 222 5 18 0
5 -222 0
18 -222 0
-5 -18 222 0
c gate 223 221 222 0
221 -223 0
222 -223 0
-221 -222 223 0
c gate 224 -221 -222 0
-221 -224 0
-222 -224 0
221 222 224 0
c gate 225 -223 -224 0
-223 -225 0
-224 -225 0
223 224 225 0
c gate 226 220 225 0
220 -226 0
225 -226 0
-220 -225 226 0
c gate 227 -220 -225 0
-220 -227 0
-225 -227 0
220 225 227 0
c gate 228 -226 -227 0
-226 -228 0
-227 -228 0
226 227 228 0
c gate 229 -180 -182 0
-180 -229 0
-182 -229 0
180 182 229 0
c gate 230 228 -229 0
228 -230 0
-229 -230 0
-228 229 230 0
c gate 231 -228 229 0
-228 -231 0
229 -231 0
228 -229 231 0
c gate 232 -230 -231 0
-230 -232 0
-231 -232 0
230 231 232 0
c gate 233 -219 232 0
-219 -233 0
232 -233 0
219 -232 233 0
c gate 234 219 -232 0
219 -234 0
-232 -234 0
-219 232 234 0
c gate 235 -233 -234 0
-233 -235 0
-234 -235 0
233 234 235 0
c gate 236 -191 -194 0
-191 -236 0
-194 -236 0
191 194 236 0
c gate 237 7 16 0
7 -237 0
16 -237 0
-7 -16 237 0
c gate 238 9 14 0
9 -238 0
14 -238 0
-9 -14 238 0
c gate 239 8 15 0
8 -239 0
15 -239 0
-8 -15 239 0
c gate 240 -238 -239 0
-238 -240 0
-239 -240 0
238 239 240 0
c gate 241 238 239 0
238 -241 0
239 -241 0
-238 -239 241 0
c gate 242 -240 -241 0
-240 -242 0
-241 -242 0
240 241 242 0
c gate 243 237 242 0
237 -243 0
242 -243 0
-237 -242 243 0
c gate 244 -237 -242 0
-237 -244 0
-242 -244 0
237 242 244 0
c gate 245 -243 -244 0
-243 -245 0
-244 -245 0
243 244 245 0
c gate 246 10 13 0
10 -246 0
13 -246 0
-10 -13 246 0
c gate 247 -130 246 0
-130 -247 0
246 -247 0
130 -246 247 0
c gate 248 245 247 0
245 -248 0
247 -248 0
-245 -247 248 0
c gate 249 -245 -247 0
-245 -249 0
-247 -249 0
245 247 249 0
c gate 250 -248 -249 0
-248 -250 0
-249 -250 0
248 249 250 0
c gate 251 -236 250 0
-236 -251 0
250 -251 0
236 -250 251 0
c gate 252 236 -250 0
236 -252 0
-250 -252 0
-236 250 252 0
c gate 253 -251 -252 0
-251 -253 0
-252 -253 0
251 252 253 0
c gate 254 235 253 0
235 -254 0
253 -254 0
-235 -253 254 0
c gate 255 -235 -253 0
-235 -255 0
-253 -255 0
235 253 255 0
c gate 256 -254 -255 0
-254 -256 0
-255 -256 0
254 255 256 0
c gate 257 -218 256 0
-218 -257 0
256 -257 0
218 -256 257 0
c gate 258 218 -256 0
218 -258 0
-256 -258 0
-218 256 258 0
c gate 259 -257 -258 0
-257 -259 0
-258 -259 0
257 258 259 0
c gate 260 -217 259 0
-217 -260 0
259 -260 0
217 -259 260 0
c gate 261 217 -259 0
217 -261 0
-259 -261 0
-217 259 261 0
c gate 262 -260 -261 0
-260 -262 0
-261 -262 0
260 261 262 0
c gate 263 -216 262 0
-216 -263 0
262 -263 0
216 -262 263 0
c gate 264 216 -262 0
216 -264 0
-262 -264 0
-216 262 264 0
c gate 265 -263 -264 0
-263 -265 0
-264 -265 0
263 264 265 0
c gate 266 215 265 0
215 -266 0
265 -266 0
-215 -265 266 0
c gate 267 -215 -265 0
-215 -267 0
-265 -267 0
215 265 267 0
c gate 268 -266 -267 0
-266 -268 0
-267 -268 0
266 267 268 0
c gate 269 -214 268 0
-214 -269 0
268 -269 0
214 -268 269 0
c gate 270 -47 -49 0
-47 -270 0
-49 -270 0
47 49 270 0
c gate 271 -50 -270 0
-50 -271 0
-270 -271 0
50 270 271 0
c gate 272 6 11 0
6 -272 0
11 -272 0
-6 -11 272 0
c gate 273 5 12 0
5 -273 0
12 -273 0
-5 -12 273 0
c gate 274 272 273 0
272 -274 0
273 -274 0
-272 -273 274 0
c gate 275 4 13 0
4 -275 0
13 -275 0
-4 -13 275 0
c gate 276 -272 -273 0
-272 -276 0
-273 -276 0
272 273 276 0
c gate 277 -274 -276 0
-274 -277 0
-276 -277 0
274 276 277 0
c gate 278 275 277 0
275 -278 0
277 -278 0
-275 -277 278 0
c gate 279 -274 -278 0
-274 -279 0
-278 -279 0
274 278 279 0
c gate 280 -34 35 0
-34 -280 0
35 -280 0
34 -35 280 0
c gate 281 -36 -280 0
-36 -281 0
-280 -281 0
36 280 281 0
c gate 282 279 281 0
279 -282 0
281 -282 0
-279 -281 282 0
c gate 283 -279 -281 0
-279 -283 0
-281 -283 0
279 281 283 0
c gate 284 -282 -283 0
-282 -284 0
-283 -284 0
282 283 284 0
c gate 285 2 16 0
2 -285 0
16 -285 0
-2 -16 285 0
c gate 286 4 14 0
4 -286 0
14 -286 0
-4 -14 286 0
c gate 287 3 15 0
3 -287 0
15 -287 0
-3 -15 287 0
c gate 288 -286 -287 0
-286 -288 0
-287 -288 0
286 287 288 0
c gate 289 286 287 0
286 -289 0
287 -289 0
-286 -287 289 0
c gate 290 -288 -289 0
-288 -290 0
-289 -290 0
288 289 290 0
c gate 291 285 290 0
285 -291 0
290 -291 0
-285 -290 291 0
c gate 292 -285 -290 0
-285 -292 0
-290 -292 0
285 290 292 0
c gate 293 -291 -292 0
-291 -293 0
-292 -293 0
291 292 293 0
c gate 294 284 -293 0
284 -294 0
-293 -294 0
-284 293 294 0
c gate 295 -282 -294 0
-282 -295 0
-294 -295 0
282 294 295 0
c gate 296 271 295 0
271 -296 0
295 -296 0
-271 -295 296 0
c gate 297 -91 -92 0
-91 -297 0
-92 -297 0
91 92 297 0
c gate 298 -93 -297 0
-93 -298 0
-297 -298 0
93 297 298 0
c gate 299 -289 -291 0
-289 -299 0
-291 -299 0
289 291 299 0
c gate 300 -298 299 0
-298 -300 0
299 -300 0
298 -299 300 0
c gate 301 298 -299 0
298 -301 0
-299 -301 0
-298 299 301 0
c gate 302 -300 -301 0
-300 -302 0
-301 -302 0
300 301 302 0
c gate 303 -271 -295 0
-271 -303 0
-295 -303 0
271 295 303 0
c gate 304 -296 -303 0
-296 -304 0
-303 -304 0
296 303 304 0
c gate 305 302 304 0
302 -305 0
304 -305 0
-302 -304 305 0
c gate 306 -296 -305 0
-296 -306 0
-305 -306 0
296 305 306 0
c gate 307 -96 -98 0
-96 -307 0
-98 -307 0
96 98 307 0
c gate 308 -99 -307 0
-99 -308 0
-307 -308 0
99 307 308 0
c gate 309 -306 308 0
-306 -309 0
308 -309 0
306 -308 309 0
c gate 310 306 -308 0
306 -310 0
-308 -310 0
-306 308 310 0
c gate 311 -309 -310 0
-309 -311 0
-310 -311 0
309 310 311 0
c gate 312 301 311 0
301 -312 0
311 -312 0
-301 -311 312 0
c gate 313 -309 -312 0
-309 -313 0
-312 -313 0
309 312 313 0
c gate 314 151 -153 0
151 -314 0
-153 -314 0
-151 153 314 0
c gate 315 -154 -314 0
-154 -315 0
-314 -315 0
154 314 315 0
c gate 316 -313 315 0
-313 -316 0
315 -316 0
313 -315 316 0
c gate 317 1 20 0
1 -317 0
20 -317 0
-1 -20 317 0
c gate 318 313 -315 0
313 -318 0
-315 -318 0
-313 315 318 0
c gate 319 -316 -318 0
-316 -319 0
-318 -319 0
316 318 319 0
c gate 320 317 319 0
317 -320 0
319 -320 0
-317 -319 320 0
c gate 321 -316 -320 0
-316 -321 0
-320 -321 0
316 320 321 0
c gate 322 -210 -212 0
-210 -322 0
-212 -322 0
210 212 322 0
c gate 323 -213 -322 0
-213 -323 0
-322 -323 0
213 322 323 0
c gate 324 -321 323 0
-321 -324 0
323 -324 0
321 -323 324 0
c gate 325 -269 -324 0
-269 -325 0
-324 -325 0
269 324 325 0
c gate 326 -275 -277 0
-275 -326 0
-277 -326 0
275 277 326 0
c gate 327 -278 -326 0
-278 -327 0
-326 -327 0
278 326 327 0
c gate 328 5 11 0
5 -328 0
11 -328 0
-5 -11 328 0
c gate 329 4 12 0
4 -329 0
12 -329 0
-4 -12 329 0
c gate 330 -328 -329 0
-328 -330 0
-329 -330 0
328 329 330 0
c gate 331 3 13 0
3 -331 0
13 -331 0
-3 -13 331 0
c gate 332 328 329 0
328 -332 0
329 -332 0
-328 -329 332 0
c gate 333 -330 -332 0
-330 -333 0
-332 -333 0
330 332 333 0
c gate 334 -331 333 0
-331 -334 0
333 -334 0
331 -333 334 0
c gate 335 -330 -334 0
-330 -335 0
-334 -335 0
330 334 335 0
c gate 336 327 335 0
327 -336 0
335 -336 0
-327 -335 336 0
c gate 337 1 16 0
1 -337 0
16 -337 0
-1 -16 337 0
c gate 338 3 14 0
3 -338 0
14 -338 0
-3 -14 338 0
c gate 339 2 15 0
2 -339 0
15 -339 0
-2 -15 339 0
c gate 340 -338 -339 0
-338 -340 0
-339 -340 0
338 339 340 0
c gate 341 338 339 0
338 -341 0
339 -341 0
-338 -339 341 0
c gate 342 -340 -341 0
-340 -342 0
-341 -342 0
340 341 342 0
c gate 343 337 342 0
337 -343 0
342 -343 0
-337 -342 343 0
c gate 344 -337 -342 0
-337 -344 0
-342 -344 0
337 342 344 0
c gate 345 -343 -344 0
-343 -345 0
-344 -345 0
343 344 345 0
c gate 346 -327 -335 0
-327 -346 0
-335 -346 0
327 335 346 0
c gate 347 -336 -346 0
-336 -347 0
-346 -347 0
336 346 347 0
c gate 348 345 347 0
345 -348 0
347 -348 0
-345 -347 348 0
c gate 349 -336 -348 0
-336 -349 0
-348 -349 0
336 348 349 0
c gate 350 -284 293 0
-284 -350 0
293 -350 0
284 -293 350 0
c gate 351 -294 -350 0
-294 -351 0
-350 -351 0
294 350 351 0
c gate 352 -349 -351 0
-349 -352 0
-351 -352 0
349 351 352 0
c gate 353 349 351 0
349 -353 0
351 -353 0
-349 -351 353 0
c gate 354 -352 -353 0
-352 -354 0
-353 -354 0
352 353 354 0
c gate 355 1 17 0
1 -355 0
17 -355 0
-1 -17 355 0
c gate 356 -341 -343 0
-341 -356 0
-343 -356 0
341 343 356 0
c gate 357 355 -356 0
355 -357 0
-356 -357 0
-355 356 357 0
c gate 358 -355 356 0
-355 -358 0
356 -358 0
355 -356 358 0
c gate 359 -357 -358 0
-357 -359 0
-358 -359 0
357 358 359 0
c gate 360 354 359 0
354 -360 0
359 -360 0
-354 -359 360 0
c gate 361 -352 -360 0
-352 -361 0
-360 -361 0
352 360 361 0
c gate 362 -302 -304 0
-302 -362 0
-304 -362 0
302 304 362 0
c gate 363 -305 -362 0
-305 -363 0
-362 -363 0
305 362 363 0
c gate 364 -361 363 0
-361 -364 0
363 -364 0
361 -363 364 0
c gate 365 361 -363 0
361 -365 0
-363 -365 0
-361 363 365 0
c gate 366 -364 -365 0
-364 -366 0
-365 -366 0
364 365 366 0
c gate 367 357 366 0
357 -367 0
366 -367 0
-357 -366 367 0
c gate 368 -364 -367 0
-364 -368 0
-367 -368 0
364 367 368 0
c gate 369 -301 -311 0
-301 -369 0
-311 -369 0
301 311 369 0
c gate 370 -312 -369 0
-312 -370 0
-369 -370 0
312 369 370 0
c gate 371 -368 370 0
-368 -371 0
370 -371 0
368 -370 371 0
c gate 372 -317 -319 0
-317 -372 0
-319 -372 0
317 319 372 0
c gate 373 -320 -372 0
-320 -373 0
-372 -373 0
320 372 373 0
c gate 374 371 373 0
371 -374 0
373 -374 0
-371 -373 374 0
c gate 375 4 11 0
4 -375 0
11 -375 0
-4 -11 375 0
c gate 376 3 12 0
3 -376 0
12 -376 0
-3 -12 376 0
c gate 377 375 376 0
375 -377 0
376 -377 0
-375 -376 377 0
c gate 378 -375 -376 0
-375 -378 0
-376 -378 0
375 376 378 0
c gate 379 -377 -378 0
-377 -379 0
-378 -379 0
377 378 379 0
c gate 380 2 13 0
2 -380 0
13 -380 0
-2 -13 380 0
c gate 381 379 380 0
379 -381 0
380 -381 0
-379 -380 381 0
c gate 382 -377 -381 0
-377 -382 0
-381 -382 0
377 381 382 0
c gate 383 331 -333 0
331 -383 0
-333 -383 0
-331 333 383 0
c gate 384 -334 -383 0
-334 -384 0
-383 -384 0
334 383 384 0
c gate 385 -382 -384 0
-382 -385 0
-384 -385 0
382 384 385 0
c gate 386 382 384 0
382 -386 0
384 -386 0
-382 -384 386 0
c gate 387 -385 -386 0
-385 -387 0
-386 -387 0
385 386 387 0
c gate 388 2 14 0
2 -388 0
14 -388 0
-2 -14 388 0
c gate 389 1 15 0
1 -389 0
15 -389 0
-1 -15 389 0
c gate 390 -388 -389 0
-388 -390 0
-389 -390 0
388 389 390 0
c gate 391 388 389 0
388 -391 0
389 -391 0
-388 -389 391 0
c gate 392 -390 -391 0
-390 -392 0
-391 -392 0
390 391 392 0
c gate 393 387 392 0
387 -393 0
392 -393 0
-387 -392 393 0
c gate 394 -385 -393 0
-385 -394 0
-393 -394 0
385 393 394 0
c gate 395 -345 -347 0
-345 -395 0
-347 -395 0
345 347 395 0
c gate 396 -348 -395 0
-348 -396 0
-395 -396 0
348 395 396 0
c gate 397 -394 396 0
-394 -397 0
396 -397 0
394 -396 397 0
c gate 398 394 -396 0
394 -398 0
-396 -398 0
-394 396 398 0
c gate 399 -397 -398 0
-397 -399 0
-398 -399 0
397 398 399 0
c gate 400 391 399 0
391 -400 0
399 -400 0
-391 -399 400 0
c gate 401 -397 -400 0
-397 -401 0
-400 -401 0
397 400 401 0
c gate 402 -354 -359 0
-354 -402 0
-359 -402 0
354 359 402 0
c gate 403 -360 -402 0
-360 -403 0
-402 -403 0
360 402 403 0
c gate 404 -401 403 0
-401 -404 0
403 -404 0
401 -403 404 0
c gate 405 -357 -366 0
-357 -405 0
-366 -405 0
357 366 405 0
c gate 406 -367 -405 0
-367 -406 0
-405 -406 0
367 405 406 0
c gate 407 404 406 0
404 -407 0
406 -407 0
-404 -406 407 0
c gate 408 401 -403 0
401 -408 0
-403 -408 0
-401 403 408 0
c gate 409 -391 -399 0
-391 -409 0
-399 -409 0
391 399 409 0
c gate 410 -400 -409 0
-400 -410 0
-409 -410 0
400 409 410 0
c gate 411 -404 410 0
-404 -411 0
410 -411 0
404 -410 411 0
c gate 412 -408 411 0
-408 -412 0
411 -412 0
408 -411 412 0
c gate 413 -379 -380 0
-379 -413 0
-380 -413 0
379 380 413 0
c gate 414 -381 -413 0
-381 -414 0
-413 -414 0
381 413 414 0
c gate 415 3 11 0
3 -415 0
11 -415 0
-3 -11 415 0
c gate 416 2 12 0
2 -416 0
12 -416 0
-2 -12 416 0
c gate 417 1 13 0
1 -417 0
13 -417 0
-1 -13 417 0
c gate 418 416 417 0
416 -418 0
417 -418 0
-416 -417 418 0
c gate 419 -415 -418 0
-415 -419 0
-418 -419 0
415 418 419 0
c gate 420 -416 -417 0
-416 -420 0
-417 -420 0
416 417 420 0
c gate 421 -419 -420 0
-419 -421 0
-420 -421 0
419 420 421 0
c gate 422 414 421 0
414 -422 0
421 -422 0
-414 -421 422 0
c gate 423 1 14 0
1 -423 0
14 -423 0
-1 -14 423 0
c gate 424 -414 -421 0
-414 -424 0
-421 -424 0
414 421 424 0
c gate 425 -422 -424 0
-422 -425 0
-424 -425 0
422 424 425 0
c gate 426 423 425 0
423 -426 0
425 -426 0
-423 -425 426 0
c gate 427 -422 -426 0
-422 -427 0
-426 -427 0
422 426 427 0
c gate 428 -387 -392 0
-387 -428 0
-392 -428 0
387 392 428 0
c gate 429 -393 -428 0
-393 -429 0
-428 -429 0
393 428 429 0
c gate 430 427 -429 0
427 -430 0
-429 -430 0
-427 429 430 0
c gate 431 -427 429 0
-427 -431 0
429 -431 0
427 -429 431 0
c gate 432 -423 -425 0
-423 -432 0
-425 -432 0
423 425 432 0
c gate 433 -3 -13 0
-3 -433 0
-13 -433 0
3 13 433 0
c gate 434 -331 -433 0
-331 -434 0
-433 -434 0
331 433 434 0
c gate 435 1 11 0
1 -435 0
11 -435 0
-1 -11 435 0
c gate 436 416 435 0
416 -436 0
435 -436 0
-416 -435 436 0
c gate 437 -434 436 0
-434 -437 0
436 -437 0
434 -436 437 0
c gate 438 -426 437 0
-426 -438 0
437 -438 0
426 -437 438 0
c gate 439 -432 438 0
-432 -439 0
438 -439 0
432 -438 439 0
c gate 440 -431 -439 0
-431 -440 0
-439 -440 0
431 439 440 0
c gate 441 -430 -440 0
-430 -441 0
-440 -441 0
430 440 441 0
c gate 442 412 441 0
412 -442 0
441 -442 0
-412 -441 442 0
c gate 443 -407 -442 0
-407 -443 0
-442 -443 0
407 442 443 0
c gate 444 -404 -406 0
-404 -444 0
-406 -444 0
404 406 444 0
c gate 445 368 -370 0
368 -445 0
-370 -445 0
-368 370 445 0
c gate 446 -371 -445 0
-371 -446 0
-445 -446 0
371 445 446 0
c gate 447 -444 446 0
-444 -447 0
446 -447 0
444 -446 447 0
c gate 448 -443 447 0
-443 -448 0
447 -448 0
443 -447 448 0
c gate 449 -374 -448 0
-374 -449 0
-448 -449 0
374 448 449 0
c gate 450 321 -323 0
321 -450 0
-323 -450 0
-321 323 450 0
c gate 451 -371 -373 0
-371 -451 0
-373 -451 0
371 373 451 0
c gate 452 -450 -451 0
-450 -452 0
-451 -452 0
450 451 452 0
c gate 453 -449 452 0
-449 -453 0
452 -453 0
449 -452 453 0
c gate 454 325 -453 0
325 -454 0
-453 -454 0
-325 453 454 0
c gate 455 -188 -248 0
-188 -455 0
-248 -455 0
188 248 455 0
c gate 456 8 16 0
8 -456 0
16 -456 0
-8 -16 456 0
c gate 457 9 15 0
9 -457 0
15 -457 0
-9 -15 457 0
c gate 458 10 14 0
10 -458 0
14 -458 0
-10 -14 458 0
c gate 459 457 458 0
457 -459 0
458 -459 0
-457 -458 459 0
c gate 460 -457 -458 0
-457 -460 0
-458 -460 0
457 458 460 0
c gate 461 -459 -460 0
-459 -461 0
-460 -461 0
459 460 461 0
c gate 462 456 461 0
456 -462 0
461 -462 0
-456 -461 462 0
c gate 463 -456 -461 0
-456 -463 0
-461 -463 0
456 461 463 0
c gate 464 -462 -463 0
-462 -464 0
-463 -464 0
462 463 464 0
c gate 465 -455 464 0
-455 -465 0
464 -465 0
455 -464 465 0
c gate 466 -223 -226 0
-223 -466 0
-226 -466 0
223 226 466 0
c gate 467 5 19 0
5 -467 0
19 -467 0
-5 -19 467 0
c gate 468 7 17 0
7 -468 0
17 -468 0
-7 -17 468 0
c gate 469 6 18 0
6 -469 0
18 -469 0
-6 -18 469 0
c gate 470 468 469 0
468 -470 0
469 -470 0
-468 -469 470 0
c gate 471 -468 -469 0
-468 -471 0
-469 -471 0
468 469 471 0
c gate 472 -470 -471 0
-470 -472 0
-471 -472 0
470 471 472 0
c gate 473 467 472 0
467 -473 0
472 -473 0
-467 -472 473 0
c gate 474 -467 -472 0
-467 -474 0
-472 -474 0
467 472 474 0
c gate 475 -473 -474 0
-473 -475 0
-474 -475 0
473 474 475 0
c gate 476 -241 -243 0
-241 -476 0
-243 -476 0
241 243 476 0
c gate 477 475 -476 0
475 -477 0
-476 -477 0
-475 476 477 0
c gate 478 -475 476 0
-475 -478 0
476 -478 0
475 -476 478 0
c gate 479 -477 -478 0
-477 -479 0
-478 -479 0
477 478 479 0
c gate 480 -466 479 0
-466 -480 0
479 -480 0
466 -479 480 0
c gate 481 466 -479 0
466 -481 0
-479 -481 0
-466 479 481 0
c gate 482 -480 -481 0
-480 -482 0
-481 -482 0
480 481 482 0
c gate 483 455 -464 0
455 -483 0
-464 -483 0
-455 464 483 0
c gate 484 -465 -483 0
-465 -484 0
-483 -484 0
465 483 484 0
c gate 485 482 484 0
482 -485 0
484 -485 0
-482 -484 485 0
c gate 486 -465 -485 0
-465 -486 0
-485 -486 0
465 485 486 0
c gate 487 -470 -473 0
-470 -487 0
-473 -487 0
470 473 487 0
c gate 488 6 19 0
6 -488 0
19 -488 0
-6 -19 488 0
c gate 489 7 18 0
7 -489 0
18 -489 0
-7 -18 489 0
c gate 490 8 17 0
8 -490 0
17 -490 0
-8 -17 490 0
c gate 491 -489 -490 0
-489 -491 0
-490 -491 0
489 490 491 0
c gate 492 489 490 0
489 -492 0
490 -492 0
-489 -490 492 0
c gate 493 -491 -492 0
-491 -493 0
-492 -493 0
491 492 493 0
c gate 494 488 493 0
488 -494 0
493 -494 0
-488 -493 494 0
c gate 495 -488 -493 0
-488 -495 0
-493 -495 0
488 493 495 0
c gate 496 -494 -495 0
-494 -496 0
-495 -496 0
494 495 496 0
c gate 497 -459 -462 0
-459 -497 0
-462 -497 0
459 462 497 0
c gate 498 496 -497 0
496 -498 0
-497 -498 0
-496 497 498 0
c gate 499 -496 497 0
-496 -499 0
497 -499 0
496 -497 499 0
c gate 500 -498 -499 0
-498 -500 0
-499 -500 0
498 499 500 0
c gate 501 487 -500 0
487 -501 0
-500 -501 0
-487 500 501 0
c gate 502 -487 500 0
-487 -502 0
500 -502 0
487 -500 502 0
c gate 503 -501 -502 0
-501 -503 0
-502 -503 0
501 502 503 0
c gate 504 10 15 0
10 -504 0
15 -504 0
-10 -15 504 0
c gate 505 9 16 0
9 -505 0
16 -505 0
-9 -16 505 0
c gate 506 -504 -505 0
-504 -506 0
-505 -506 0
504 505 506 0
c gate 507 504 505 0
504 -507 0
505 -507 0
-504 -505 507 0
c gate 508 -506 -507 0
-506 -508 0
-507 -508 0
506 507 508 0
c gate 509 503 508 0
503 -509 0
508 -509 0
-503 -508 509 0
c gate 510 -503 -508 0
-503 -510 0
-508 -510 0
503 508 510 0
c gate 511 -509 -510 0
-509 -511 0
-510 -511 0
509 510 511 0
c gate 512 -486 511 0
-486 -512 0
511 -512 0
486 -511 512 0
c gate 513 -477 -480 0
-477 -513 0
-480 -513 0
477 480 513 0
c gate 514 486 -511 0
486 -514 0
-511 -514 0
-486 511 514 0
c gate 515 -512 -514 0
-512 -515 0
-514 -515 0
512 514 515 0
c gate 516 -513 515 0
-513 -516 0
515 -516 0
513 -515 516 0
c gate 517 -512 -516 0
-512 -517 0
-516 -517 0
512 516 517 0
c gate 518 -498 -502 0
-498 -518 0
-502 -518 0
498 502 518 0
c gate 519 10 16 0
10 -519 0
16 -519 0
-10 -16 519 0
c gate 520 -492 -494 0
-492 -520 0
-494 -520 0
492 494 520 0
c gate 521 7 19 0
7 -521 0
19 -521 0
-7 -19 521 0
c gate 522 8 18 0
8 -522 0
18 -522 0
-8 -18 522 0
c gate 523 9 17 0
9 -523 0
17 -523 0
-9 -17 523 0
c gate 524 -522 -523 0
-522 -524 0
-523 -524 0
522 523 524 0
c gate 525 522 523 0
522 -525 0
523 -525 0
-522 -523 525 0
c gate 526 -524 -525 0
-524 -526 0
-525 -526 0
524 525 526 0
c gate 527 521 526 0
521 -527 0
526 -527 0
-521 -526 527 0
c gate 528 -521 -526 0
-521 -528 0
-526 -528 0
521 526 528 0
c gate 529 -527 -528 0
-527 -529 0
-528 -529 0
527 528 529 0
c gate 530 507 529 0
507 -530 0
529 -530 0
-507 -529 530 0
c gate 531 -507 -529 0
-507 -531 0
-529 -531 0
507 529 531 0
c gate 532 -530 -531 0
-530 -532 0
-531 -532 0
530 531 532 0
c gate 533 520 -532 0
520 -533 0
-532 -533 0
-520 532 533 0
c gate 534 -520 532 0
-520 -534 0
532 -534 0
520 -532 534 0
c gate 535 -533 -534 0
-533 -535 0
-534 -535 0
533 534 535 0
c gate 536 519 535 0
519 -536 0
535 -536 0
-519 -535 536 0
c gate 537 -519 -535 0
-519 -537 0
-535 -537 0
519 535 537 0
c gate 538 -536 -537 0
-536 -538 0
-537 -538 0
536 537 538 0
c gate 539 509 538 0
509 -539 0
538 -539 0
-509 -538 539 0
c gate 540 -509 -538 0
-509 -540 0
-538 -540 0
509 538 540 0
c gate 541 -539 -540 0
-539 -541 0
-540 -541 0
539 540 541 0
c gate 542 -518 541 0
-518 -542 0
541 -542 0
518 -541 542 0
c gate 543 518 -541 0
518 -543 0
-541 -543 0
-518 541 543 0
c gate 544 -542 -543 0
-542 -544 0
-543 -544 0
542 543 544 0
c gate 545 -517 544 0
-517 -545 0
544 -545 0
517 -544 545 0
c gate 546 6 20 0
6 -546 0
20 -546 0
-6 -20 546 0
c gate 547 517 -544 0
517 -547 0
-544 -547 0
-517 544 547 0
c gate 548 -545 -547 0
-545 -548 0
-547 -548 0
545 547 548 0
c gate 549 546 548 0
546 -549 0
548 -549 0
-546 -548 549 0
c gate 550 -545 -549 0
-545 -550 0
-549 -550 0
545 549 550 0
c gate 551 7 20 0
7 -551 0
20 -551 0
-7 -20 551 0
c gate 552 -539 -542 0
-539 -552 0
-542 -552 0
539 542 552 0
c gate 553 -530 -534 0
-530 -553 0
-534 -553 0
530 534 553 0
c gate 554 -525 -527 0
-525 -554 0
-527 -554 0
525 527 554 0
c gate 555 8 19 0
8 -555 0
19 -555 0
-8 -19 555 0
c gate 556 9 18 0
9 -556 0
18 -556 0
-9 -18 556 0
c gate 557 10 17 0
10 -557 0
17 -557 0
-10 -17 557 0
c gate 558 -556 -557 0
-556 -558 0
-557 -558 0
556 557 558 0
c gate 559 556 557 0
556 -559 0
557 -559 0
-556 -557 559 0
c gate 560 -558 -559 0
-558 -560 0
-559 -560 0
558 559 560 0
c gate 561 555 560 0
555 -561 0
560 -561 0
-555 -560 561 0
c gate 562 -555 -560 0
-555 -562 0
-560 -562 0
555 560 562 0
c gate 563 -561 -562 0
-561 -563 0
-562 -563 0
561 562 563 0
c gate 564 -554 563 0
-554 -564 0
563 -564 0
554 -563 564 0
c gate 565 554 -563 0
554 -565 0
-563 -565 0
-554 563 565 0
c gate 566 -564 -565 0
-564 -566 0
-565 -566 0
564 565 566 0
c gate 567 536 566 0
536 -567 0
566 -567 0
-536 -566 567 0
c gate 568 -536 -566 0
-536 -568 0
-566 -568 0
536 566 568 0
c gate 569 -567 -568 0
-567 -569 0
-568 -569 0
567 568 569 0
c gate 570 -553 569 0
-553 -570 0
569 -570 0
553 -569 570 0
c gate 571 553 -569 0
553 -571 0
-569 -571 0
-553 569 571 0
c gate 572 -570 -571 0
-570 -572 0
-571 -572 0
570 571 572 0
c gate 573 -552 572 0
-552 -573 0
572 -573 0
552 -572 573 0
c gate 574 552 -572 0
552 -574 0
-572 -574 0
-552 572 574 0
c gate 575 -573 -574 0
-573 -575 0
-574 -575 0
573 574 575 0
c gate 576 551 575 0
551 -576 0
575 -576 0
-551 -575 576 0
c gate 577 -551 -575 0
-551 -577 0
-575 -577 0
551 575 577 0
c gate 578 -576 -577 0
-576 -578 0
-577 -578 0
576 577 578 0
c gate 579 -550 578 0
-550 -579 0
578 -579 0
550 -578 579 0
c gate 580 -251 -254 0
-251 -580 0
-254 -580 0
251 254 580 0
c gate 581 -482 -484 0
-482 -581 0
-484 -581 0
482 484 581 0
c gate 582 -485 -581 0
-485 -582 0
-581 -582 0
485 581 582 0
c gate 583 -580 582 0
-580 -583 0
582 -583 0
580 -582 583 0
c gate 584 -230 -233 0
-230 -584 0
-233 -584 0
230 233 584 0
c gate 585 580 -582 0
580 -585 0
-582 -585 0
-580 582 585 0
c gate 586 -583 -585 0
-583 -586 0
-585 -586 0
583 585 586 0
c gate 587 -584 586 0
-584 -587 0
586 -587 0
584 -586 587 0
c gate 588 -583 -587 0
-583 -588 0
-587 -588 0
583 587 588 0
c gate 589 513 -515 0
513 -589 0
-515 -589 0
-513 515 589 0
c gate 590 -516 -589 0
-516 -590 0
-589 -590 0
516 589 590 0
c gate 591 -588 590 0
-588 -591 0
590 -591 0
588 -590 591 0
c gate 592 5 20 0
5 -592 0
20 -592 0
-5 -20 592 0
c gate 593 588 -590 0
588 -593 0
-590 -593 0
-588 590 593 0
c gate 594 -591 -593 0
-591 -594 0
-593 -594 0
591 593 594 0
c gate 595 592 594 0
592 -595 0
594 -595 0
-592 -594 595 0
c gate 596 -591 -595 0
-591 -596 0
-595 -596 0
591 595 596 0
c gate 597 -546 -548 0
-546 -597 0
-548 -597 0
546 548 597 0
c gate 598 -549 -597 0
-549 -598 0
-597 -598 0
549 597 598 0
c gate 599 -596 598 0
-596 -599 0
598 -599 0
596 -598 599 0
c gate 600 -579 -599 0
-579 -600 0
-599 -600 0
579 599 600 0
c gate 601 550 -578 0
550 -601 0
-578 -601 0
-550 578 601 0
c gate 602 596 -598 0
596 -602 0
-598 -602 0
-596 598 602 0
c gate 603 -601 -602 0
-601 -603 0
-602 -603 0
601 602 603 0
c gate 604 600 603 0
600 -604 0
603 -604 0
-600 -603 604 0
c gate 605 -257 -260 0
-257 -605 0
-260 -605 0
257 260 605 0
c gate 606 584 -586 0
584 -606 0
-586 -606 0
-584 586 606 0
c gate 607 -587 -606 0
-587 -607 0
-606 -607 0
587 606 607 0
c gate 608 -605 607 0
-605 -608 0
607 -608 0
605 -607 608 0
c gate 609 4 20 0
4 -609 0
20 -609 0
-4 -20 609 0
c gate 610 605 -607 0
605 -610 0
-607 -610 0
-605 607 610 0
c gate 611 -608 -610 0
-608 -611 0
-610 -611 0
608 610 611 0
c gate 612 609 611 0
609 -612 0
611 -612 0
-609 -611 612 0
c gate 613 -608 -612 0
-608 -613 0
-612 -613 0
608 612 613 0
c gate 614 -592 -594 0
-592 -614 0
-594 -614 0
592 594 614 0
c gate 615 -595 -614 0
-595 -615 0
-614 -615 0
595 614 615 0
c gate 616 613 -615 0
613 -616 0
-615 -616 0
-613 615 616 0
c gate 617 -613 615 0
-613 -617 0
615 -617 0
613 -615 617 0
c gate 618 -616 -617 0
-616 -618 0
-617 -618 0
616 617 618 0
c gate 619 214 -268 0
214 -619 0
-268 -619 0
-214 268 619 0
c gate 620 -263 -266 0
-263 -620 0
-266 -620 0
263 266 620 0
c gate 621 -609 -611 0
-609 -621 0
-611 -621 0
609 611 621 0
c gate 622 -612 -621 0
-612 -622 0
-621 -622 0
612 621 622 0
c gate 623 -620 622 0
-620 -623 0
622 -623 0
620 -622 623 0
c gate 624 620 -622 0
620 -624 0
-622 -624 0
-620 622 624 0
c gate 625 -623 -624 0
-623 -625 0
-624 -625 0
623 624 625 0
c gate 626 -619 625 0
-619 -626 0
625 -626 0
619 -625 626 0
c gate 627 618 626 0
618 -627 0
626 -627 0
-618 -626 627 0
c gate 628 604 627 0
604 -628 0
627 -628 0
-604 -627 628 0
c gate 629 -454 628 0
-454 -629 0
628 -629 0
454 -628 629 0
c gate 630 325 -374 0
325 -630 0
-374 -630 0
-325 374 630 0
c gate 631 629 -630 0
629 -631 0
-630 -631 0
-629 630 631 0
c PO
631 0
